Reading model...
...model read.
creating competitive generators file...
...competitive generators recorded.
Loading data...
.. real-time data read.
Compiling instance...
...instance created.
Creating Offer Mitigation (model will solve as dispatch if TRUE)...
...storage offer mitigation file created
Converting model to MPEC...
...converted
NOTE: initial MIP solve with only storage competitive to get feasible solution
Solving...

Welcome to IBM(R) ILOG(R) CPLEX(R) Interactive Optimizer 12.10.0.0
  with Simplex, Mixed Integer & Barrier Optimizers
5725-A06 5725-A29 5724-Y48 5724-Y49 5724-Y54 5724-Y55 5655-Y21
Copyright IBM Corp. 1988, 2019.  All Rights Reserved.

Type 'help' for a list of available commands.
Type 'help' followed by a command name for more
information on commands.

CPLEX> Logfile 'cplex.log' closed.
Logfile 'C:\Users\wenmi\Desktop\competitiveMPEC\logs\tmppcuh8ebt.cplex.log' open.
CPLEX> New value for parallel optimization mode: -1
CPLEX> New value for mixed integer optimality gap tolerance: 0.05
CPLEX> New value for deterministic time limit in ticks: 100000
CPLEX> Problem 'C:\Users\wenmi\Desktop\competitiveMPEC\logs\tmp9qstnyzf.pyomo.lp' read.
Read time = 0.31 sec. (27.43 ticks)
CPLEX> Problem name         : C:\Users\wenmi\Desktop\competitiveMPEC\logs\tmp9qstnyzf.pyomo.lp
Objective sense      : Maximize
Variables            :  107779  [Nneg: 1,  Box: 44054,  Free: 8928,
                                 Binary: 54796]
Objective nonzeros   :   18538
Linear constraints   :  246995  [Less: 82866,  Greater: 118424,  Equal: 45705]
  Nonzeros           :  581845
  RHS nonzeros       :  135657

Variables            : Min LB: -5000.000        Max UB: 1000000.       
Objective nonzeros   : Min   : 0.008333333      Max   : 2500.000       
Linear constraints   :
  Nonzeros           : Min   : 0.008333333      Max   : 1000000.       
  RHS nonzeros       : Min   : 0.008333333      Max   : 1000000.       
CPLEX> Version identifier: 12.10.0.0 | 2019-11-26 | 843d4de2ae
CPXPARAM_Parallel                                -1
CPXPARAM_DetTimeLimit                            100000
CPXPARAM_MIP_Tolerances_MIPGap                   0.050000000000000003
Tried aggregator 2 times.
MIP Presolve eliminated 176453 rows and 36951 columns.
MIP Presolve added 7084 rows and 0 columns.
MIP Presolve modified 50916 coefficients.
Aggregator did 25929 substitutions.
Reduced MIP has 51697 rows, 44044 columns, and 141977 nonzeros.
Reduced MIP has 17415 binaries, 0 generals, 0 SOSs, and 0 indicators.
Presolve time = 0.31 sec. (291.67 ticks)
Probing fixed 741 vars, tightened 8058 bounds.
Probing time = 0.09 sec. (16.69 ticks)
Tried aggregator 2 times.
Detecting symmetries...
MIP Presolve eliminated 1673 rows and 1488 columns.
MIP Presolve modified 6502 coefficients.
Aggregator did 96 substitutions.
Reduced MIP has 49928 rows, 42460 columns, and 136827 nonzeros.
Reduced MIP has 16674 binaries, 0 generals, 0 SOSs, and 0 indicators.
Presolve time = 0.16 sec. (248.65 ticks)
Probing fixed 1 vars, tightened 239 bounds.
Probing time = 0.20 sec. (23.71 ticks)
Clique table members: 89115.
MIP emphasis: balance optimality and feasibility.
MIP search method: dynamic search.
Parallel mode: opportunistic, using up to 16 threads.
Root relaxation solution time = 0.73 sec. (2113.74 ticks)

        Nodes                                         Cuts/
   Node  Left     Objective  IInf  Best Integer    Best Bound    ItCnt     Gap

      0     0     2006.1634   232                   2006.1634    10530         
      0     0     2006.1634   232                    Cuts: 66    10563         
      0     0     2005.8516   232                    Cuts: 15    10575         
      0     0     2005.6356   232                     Cuts: 6    10588         
      0     0     2000.5089   232                    Cuts: 33    10603         
      0     0     1963.8293   232                    Cuts: 11    10621         
      0     0     1946.9953   232                    Cuts: 11    10642         
      0     0     1946.6314   232                    Cuts: 10    10657         
      0     0     1946.6314   232                     Cuts: 7    10664         
      0     0     1946.0221   232                     Cuts: 6    10671         
      0     0     1946.0221   232                    Cuts: 10    10680         
      0    17      653.8438    36                   1516.9365    10846         
Elapsed time = 10.06 sec. (10678.67 ticks, tree = 0.02 MB, solutions = 0)
     58    71     -236.6524     9                    859.6321    11400         
    193    61      859.6321    36                    859.6321    11224         
    365   131    -1365.7746     9                    859.6321    12671         
    513   216    infeasible                          859.6321    14391         
    663   220    -1078.5896     4                    859.6321    14395         
    798   459      -22.4634     6                    859.6321    20834         
    931   651     -322.7439     8                    859.6321    31073         
   1072   630   -28282.1061    32                    859.6321    30914         
   1208   752    -1108.5760    17                    859.6321    33645         
   1853   859    -4267.0086    16                    859.6321    36414         
Elapsed time = 25.66 sec. (13801.60 ticks, tree = 32.32 MB, solutions = 0)
   2474  1155     -963.1524    19                    853.6816    47780         
   3042  1635    -3591.1845    20                    781.6656    65897         
   3654  1819    infeasible                          781.6656    71652         
   4244  2146    infeasible                          781.6656    92491         
   4609  2316    -1373.5490    22                    781.6656   113988         

Performing restart 1

Repeating presolve.
Tried aggregator 3 times.
MIP Presolve eliminated 1553 rows and 1376 columns.
MIP Presolve modified 3561 coefficients.
Aggregator did 295 substitutions.
Reduced MIP has 48080 rows, 40789 columns, and 130562 nonzeros.
Reduced MIP has 15986 binaries, 0 generals, 0 SOSs, and 0 indicators.
Presolve time = 0.13 sec. (127.45 ticks)
Tried aggregator 2 times.
MIP Presolve eliminated 723 rows and 586 columns.
MIP Presolve modified 218 coefficients.
Aggregator did 1 substitutions.
Reduced MIP has 47356 rows, 40202 columns, and 128495 nonzeros.
Reduced MIP has 15693 binaries, 0 generals, 0 SOSs, and 0 indicators.
Presolve time = 0.08 sec. (79.12 ticks)
Tried aggregator 2 times.
MIP Presolve eliminated 62 rows and 62 columns.
Aggregator did 15 substitutions.
Reduced MIP has 47279 rows, 40125 columns, and 128264 nonzeros.
Reduced MIP has 15662 binaries, 0 generals, 0 SOSs, and 0 indicators.
Presolve time = 0.16 sec. (221.00 ticks)
Represolve time = 1.09 sec. (567.58 ticks)
   4661     0     1776.4117   206                   Cuts: 546   146402         
   4661     0     1171.6511   206                   Cuts: 198   146630         
   4661     0     1140.3547   206                   Cuts: 102   146711         
   4661     0     1001.8150   206                   Cuts: 265   146890         
   4661     0      767.7793   206                   Cuts: 225   147070         
   4661     0      727.1432   206                    Cuts: 88   147195         
   4661     0      577.0390   206                   Cuts: 182   147352         
   4661     0      549.8702   206                   Cuts: 105   147437         
   4661     0      549.8702   206                    Cuts: 28   147453         
   4661     0      549.8702   206                    Cuts: 46   147474         
   4661     0      545.0198   206                    Cuts: 49   147517         
   4661     0      544.4583   206                    Cuts: 55   147543         
   4661     0      544.4583   206                    Cuts: 15   147555         
   4661     0      544.4497   206                    Cuts: 28   147590         
   4661    15    infeasible                          285.7505   148049         
   4783    55     -544.9462    10                    141.6316   148957         
   4959   126     -734.6411    16                    141.6316   150059         
   5167   191    -2182.3456    22                    141.6316   150877         
*  5387+  305                         -518.9959       96.0142           118.50%
Elapsed time = 77.45 sec. (37029.32 ticks, tree = 2.02 MB, solutions = 3)
*  5489   298      integral     0       51.8996       51.8996   156868    0.00%
   5699   315       40.9626     1       51.8996       51.8996   156702    0.00%

Clique cuts applied:  17
Cover cuts applied:  35
Implied bound cuts applied:  32
Flow cuts applied:  168
Mixed integer rounding cuts applied:  55
Zero-half cuts applied:  1
Gomory fractional cuts applied:  9

Root node processing (before b&c):
  Real time             =    8.25 sec. (10567.47 ticks)
Parallel b&c, 16 threads:
  Real time             =   71.38 sec. (28160.65 ticks)
  Sync time (average)   =    1.06 sec.
  Wait time (average)   =    0.07 sec.
                          ------------
Total (root+branch&cut) =   79.63 sec. (38728.12 ticks)

Solution pool: 3 solutions saved.

MIP - Integer optimal solution:  Objective =  5.1899591491e+01
Solution time =   79.63 sec.  Iterations = 161202  Nodes = 5733
Deterministic time = 38728.43 ticks  (486.39 ticks/sec)

CPLEX> Incumbent solution written to file 'C:\Users\wenmi\Desktop\competitiveMPEC\logs\tmprnsvdo5d.cplex.sol'.
CPLEX> NOTE: no warmstart specified for MIP iteration, default behavior is true
NOTE: resolving with all competitive generators using storage-only solution to warmstart
Solving...

Welcome to IBM(R) ILOG(R) CPLEX(R) Interactive Optimizer 12.10.0.0
  with Simplex, Mixed Integer & Barrier Optimizers
5725-A06 5725-A29 5724-Y48 5724-Y49 5724-Y54 5724-Y55 5655-Y21
Copyright IBM Corp. 1988, 2019.  All Rights Reserved.

Type 'help' for a list of available commands.
Type 'help' followed by a command name for more
information on commands.

CPLEX> Logfile 'cplex.log' closed.
Logfile 'C:\Users\wenmi\Desktop\competitiveMPEC\logs\tmpkhe6d_l3.cplex.log' open.
CPLEX> New value for parallel optimization mode: -1
CPLEX> New value for mixed integer optimality gap tolerance: 0.05
CPLEX> New value for deterministic time limit in ticks: 100000
CPLEX> Problem 'C:\Users\wenmi\Desktop\competitiveMPEC\logs\tmp8htu4prw.pyomo.lp' read.
Read time = 0.31 sec. (27.47 ticks)
CPLEX> MIP start file 'C:\Users\wenmi\Desktop\competitiveMPEC\logs\tmpk066vzkp.cplex.mst' read.
CPLEX> Problem name         : C:\Users\wenmi\Desktop\competitiveMPEC\logs\tmp8htu4prw.pyomo.lp
Objective sense      : Maximize
Variables            :  109219  [Nneg: 1,  Box: 45494,  Free: 8928,
                                 Binary: 54796]
Objective nonzeros   :   19930
Linear constraints   :  246995  [Less: 82866,  Greater: 118424,  Equal: 45705]
  Nonzeros           :  581845
  RHS nonzeros       :  135657

Variables            : Min LB: -5000.000        Max UB: 1000000.       
Objective nonzeros   : Min   : 0.008333333      Max   : 2500.000       
Linear constraints   :
  Nonzeros           : Min   : 0.008333333      Max   : 1000000.       
  RHS nonzeros       : Min   : 0.008333333      Max   : 1000000.       
CPLEX> Version identifier: 12.10.0.0 | 2019-11-26 | 843d4de2ae
CPXPARAM_Parallel                                -1
CPXPARAM_DetTimeLimit                            100000
CPXPARAM_MIP_Tolerances_MIPGap                   0.050000000000000003
1 of 1 MIP starts provided solutions.
MIP start 'm1' defined initial solution with objective 51.8996.
Tried aggregator 2 times.
MIP Presolve eliminated 176453 rows and 38391 columns.
MIP Presolve added 7084 rows and 0 columns.
MIP Presolve modified 50916 coefficients.
Aggregator did 25929 substitutions.
Reduced MIP has 51697 rows, 44044 columns, and 141977 nonzeros.
Reduced MIP has 17415 binaries, 0 generals, 0 SOSs, and 0 indicators.
Presolve time = 0.31 sec. (292.28 ticks)
Probing fixed 741 vars, tightened 8058 bounds.
Probing time = 0.09 sec. (16.69 ticks)
Tried aggregator 2 times.
Detecting symmetries...
MIP Presolve eliminated 1673 rows and 1488 columns.
MIP Presolve modified 6502 coefficients.
Aggregator did 96 substitutions.
Reduced MIP has 49928 rows, 42460 columns, and 136827 nonzeros.
Reduced MIP has 16674 binaries, 0 generals, 0 SOSs, and 0 indicators.
Presolve time = 0.17 sec. (248.66 ticks)
Probing fixed 1 vars, tightened 234 bounds.
Probing time = 0.16 sec. (19.64 ticks)
Clique table members: 88531.
MIP emphasis: balance optimality and feasibility.
MIP search method: dynamic search.
Parallel mode: opportunistic, using up to 16 threads.
Root relaxation solution time = 0.89 sec. (2521.98 ticks)

        Nodes                                         Cuts/
   Node  Left     Objective  IInf  Best Integer    Best Bound    ItCnt     Gap

*     0+    0                           51.8996   1.42248e+07              --- 
      0     0    26494.7765   678       51.8996    26494.7765    13143     --- 
      0     0    25991.0051   678       51.8996     Cuts: 504    13803     --- 
      0     0    24294.4301   678       51.8996    Cuts: 1322    14750     --- 
      0     0    24110.3290   678       51.8996     Cuts: 486    15162     --- 
      0     0    23939.9085   678       51.8996     Cuts: 549    15638     --- 
      0     0    23874.9307   678       51.8996     Cuts: 141    15763     --- 
      0     0    23832.0108   678       51.8996     Cuts: 219    15845     --- 
      0     0    23775.9513   678       51.8996      Cuts: 54    15922     --- 
      0     0    23769.3043   678       51.8996      Cuts: 60    15977     --- 
      0     0    23765.7379   678       51.8996      Cuts: 33    16001     --- 
      0     0    23758.1194   678       51.8996      Cuts: 97    16072     --- 
      0     0    23736.3057   678       51.8996      Cuts: 38    16090     --- 
      0     0    23734.9987   678       51.8996      Cuts: 30    16119     --- 
      0     0    23734.5111   678       51.8996      Cuts: 54    16150     --- 
      0     0    23724.3786   678       51.8996      Cuts: 67    16208     --- 
      0     0    23724.3481   678       51.8996      Cuts: 18    16222     --- 
      0    10    infeasible             51.8996    23446.4852    16949     --- 
Elapsed time = 8.17 sec. (9518.57 ticks, tree = 0.02 MB, solutions = 1)
     45    11    21732.8393   480       51.8996    23317.0127    16872     --- 
    162    36    18017.4546   299       51.8996    22617.2878    19368     --- 
    281    81    17305.0401   354       51.8996    22617.2878    20706     --- 
    468   147    12895.7541   219       51.8996    22617.2878    21849     --- 
    620   115    17839.1740   246       51.8996    22617.2878    21215     --- 
    778   472     9333.8891   194       51.8996    22617.2878    30398     --- 
    952   482     7888.5820   165       51.8996    22617.2878    30490     --- 
   1087   483     7888.5820   163       51.8996    22617.2878    30491     --- 
   1223   581     9504.3135   152       51.8996    22617.2878    33986     --- 
   1815  1095     7871.7304   113       51.8996    22617.2878    44524     --- 
Elapsed time = 25.39 sec. (12645.16 ticks, tree = 13.81 MB, solutions = 1)
   2258  1487     5601.5110   103       51.8996    22617.2878    52618     --- 
   2759  1832     4539.3741    76       51.8996    22617.2878    58494     --- 
   3324  2342     1464.8447    29       51.8996    22617.2878    66624     --- 
   3954  2620     9226.6224   277       51.8996    21576.3743    71065     --- 
   4558  2999     5570.1410   128       51.8996    21463.7453    76273     --- 
   4974  3363        cutoff             51.8996    21463.7453    83285     --- 

Performing restart 1

Repeating presolve.
Tried aggregator 3 times.
MIP Presolve eliminated 1494 rows and 1354 columns.
MIP Presolve modified 56307 coefficients.
Aggregator did 360 substitutions.
Reduced MIP has 48074 rows, 40746 columns, and 130615 nonzeros.
Reduced MIP has 16093 binaries, 0 generals, 0 SOSs, and 0 indicators.
Presolve time = 0.16 sec. (163.45 ticks)
Tried aggregator 2 times.
MIP Presolve eliminated 856 rows and 700 columns.
MIP Presolve modified 21326 coefficients.
Aggregator did 5 substitutions.
Reduced MIP has 47213 rows, 40041 columns, and 128203 nonzeros.
Reduced MIP has 15743 binaries, 0 generals, 0 SOSs, and 0 indicators.
Presolve time = 0.09 sec. (85.76 ticks)
Tried aggregator 1 time.
MIP Presolve eliminated 2 rows and 2 columns.
MIP Presolve modified 15131 coefficients.
Reduced MIP has 47211 rows, 40039 columns, and 128197 nonzeros.
Reduced MIP has 15742 binaries, 0 generals, 0 SOSs, and 0 indicators.
Presolve time = 0.13 sec. (131.98 ticks)
Represolve time = 1.22 sec. (642.28 ticks)
   5004     0    13528.7996  1009       51.8996    Cuts: 1279   116558     --- 
   5004     0    12659.8746  1009       51.8996     Cuts: 371   116896     --- 
   5004     0    12632.9705  1009       51.8996     Cuts: 275   117133     --- 
*  5004+    0                           51.8996    12632.9705              --- 
   5004     0    12625.8900  1009       51.8996     Cuts: 368   117310     --- 
   5004     0    12618.8122  1009       51.8996     Cuts: 210   117477     --- 
   5004     0    12611.4967  1009       51.8996     Cuts: 300   117655     --- 
   5004     0    12608.8324  1009       51.8996     Cuts: 256   117803     --- 
   5004     0    12597.9642  1009       51.8996     Cuts: 181   118002     --- 
   5004     0    12578.6281  1009       51.8996     Cuts: 209   118172     --- 
   5004     0    12576.3965  1009       51.8996     Cuts: 329   118314     --- 
   5004     0    12540.6443  1009       51.8996     Cuts: 365   118611     --- 
   5004     0    12528.2052  1009       51.8996     Cuts: 341   118868     --- 
   5004     0    12524.9948  1009       51.8996     Cuts: 381   119118     --- 
   5004     0    12503.4890  1009       51.8996     Cuts: 310   119371     --- 
   5004     0    12499.6725  1009       51.8996     Cuts: 242   119588     --- 
   5004     0    12496.5923  1009       51.8996     Cuts: 231   119752     --- 
   5004     0    12494.4907  1009       51.8996     Cuts: 220   119905     --- 
   5004     0    12492.6489  1009       51.8996     Cuts: 221   120043     --- 
   5004     0    12489.7532  1009       51.8996     Cuts: 143   120166     --- 
   5004     1        cutoff             51.8996    11173.1388   120416     --- 
   5262    83     6435.8752   336       51.8996     9697.9021   124328     --- 
   5645   399     1514.5030   230       51.8996     9620.0656   134949     --- 
   6178   513     1018.4255   189       51.8996     9620.0656   138375     --- 
Elapsed time = 94.77 sec. (61371.07 ticks, tree = 5.08 MB, solutions = 2)
   6705   933     4851.9361   271       51.8996     9620.0656   149614     --- 
   7398  1204     4282.1473   257       51.8996     9392.8945   156188     --- 
   8147  2171     6783.1542   344       51.8996     8478.1487   179096     --- 
   8883  2113     3100.9894   177       51.8996     8478.1487   176925     --- 
   9516  2158     3955.0403   193       51.8996     8478.1487   177303     --- 
  10103  3214     3475.7145   172       51.8996     8417.2120   201698     --- 
  10646  3394     5068.4292   341       51.8996     8417.2120   207846     --- 
  11177  5206     1220.5261   270       51.8996     8371.1145   254157     --- 
  11674  5292     6759.4191   269       51.8996     8371.1145   256991     --- 
  12244  4746     6939.1145   267       51.8996     8371.1145   243361     --- 
Elapsed time = 144.44 sec. (70928.68 ticks, tree = 69.84 MB, solutions = 2)
  12834  5544      595.0783   196       51.8996     8165.1634   262097     --- 
  13401  5883     2714.6515   219       51.8996     8039.5321   272481     --- 
  14046  5767     5056.1139   233       51.8996     8039.5321   269531     --- 
  14637  7472      758.2844   138       51.8996     8039.5321   312362     --- 
  15164  6612     2878.3102   217       51.8996     8039.5321   289272     --- 
  15716  7485     3661.3448   245       51.8996     7870.7267   313904     --- 
  16303  8339     7714.6527   327       51.8996     7763.4996   342681     --- 
  16971  7760      803.9495   126       51.8996     7763.4996   322714     --- 
  17438  8695     1121.4477   219       51.8996     7763.4996   350381     --- 
  17990  9473     4245.6772   274       51.8996     7716.3542   375459     --- 
Elapsed time = 195.56 sec. (80479.55 ticks, tree = 147.49 MB, solutions = 2)
  18542 10794     4212.9001   217       51.8996     7691.9952   417306     --- 
  19103  8749     4744.4852   230       51.8996     7691.9952   352087     --- 
  19684 12197     1468.2003   225       51.8996     7669.4983   463655     --- 
  20278 11663     2898.2975   182       51.8996     7669.4983   446385     --- 
  20923 10888      756.7395   172       51.8996     7620.2785   419136     --- 
  21576 11723     3823.6131   224       51.8996     7620.2785   447812     --- 
  22174 12917     3208.7297   290       51.8996     7576.1702   487074     --- 
  22835 12730     4006.7000   256       51.8996     7576.1702   480284     --- 
  23460 15516      692.5091   195       51.8996     7557.7288   567287     --- 
  24028 13069     6411.0193   280       51.8996     7539.7952   490516     --- 
Elapsed time = 246.72 sec. (90034.57 ticks, tree = 204.65 MB, solutions = 2)
  24662 13082     1683.0018   144       51.8996     7539.7952   490341     --- 
  25257 15575        cutoff             51.8996     7516.2088   570183     --- 
  25854 13722     5272.3543   300       51.8996     7516.2088   511740     --- 
  26406 16550     6641.5007   209       51.8996     7516.2088   600323     --- 
  26951 14348     2188.0734   186       51.8996     7516.2088   530857     --- 
  27559 16996        cutoff             51.8996     7516.2088   614896     --- 
  28102 15494        cutoff             51.8996     7516.2088   569236     --- 
  28695 16305     6461.7950   239       51.8996     7516.2088   594694     --- 
  29191 16693     6655.2491   397       51.8996     7516.2088   605845     --- 
  29482 16534     7447.9462   302       51.8996     7516.2088   599249     --- 
Elapsed time = 266.86 sec. (99588.84 ticks, tree = 258.63 MB, solutions = 2)

GUB cover cuts applied:  4
Clique cuts applied:  11
Cover cuts applied:  106
Implied bound cuts applied:  55
Flow cuts applied:  807
Mixed integer rounding cuts applied:  121
Lift and project cuts applied:  42
Gomory fractional cuts applied:  5

Root node processing (before b&c):
  Real time             =    7.33 sec. (9501.31 ticks)
Parallel b&c, 16 threads:
  Real time             =  259.64 sec. (90554.50 ticks)
  Sync time (average)   =    1.31 sec.
  Wait time (average)   =    0.08 sec.
                          ------------
Total (root+branch&cut) =  266.97 sec. (100055.81 ticks)

Solution pool: 2 solutions saved.

MIP - Deterministic time limit exceeded, integer feasible:  Objective =  5.1899625656e+01
Current MIP best bound =  7.4634689500e+03 (gap = 7411.57, 1.4e+04%)
Solution time =  266.97 sec.  Iterations = 697330  Nodes = 29547 (19311)
Deterministic time = 100056.12 ticks  (374.79 ticks/sec)

CPLEX> Incumbent solution written to file 'C:\Users\wenmi\Desktop\competitiveMPEC\logs\tmpkd_g54jb.cplex.sol'.
CPLEX> Exporting results... 
